p td 380 380
0 1
0 379
1 2
2 3
3 4
4 5
5 6
6 7
7 8
8 9
9 10
10 11
11 368
12 13
13 14
14 15
15 16
16 89
17 18
18 19
19 20
20 21
20 295
21 22
22 23
23 24
23 245
24 25
25 26
26 27
27 360
28 29
29 135
30 31
31 32
31 264
32 33
33 34
34 99
35 36
35 86
36 37
37 38
38 39
39 40
40 41
41 42
42 43
43 44
44 45
45 46
46 47
46 191
47 48
48 49
49 67
50 51
51 52
52 53
53 54
54 55
55 56
56 57
56 317
57 58
58 76
59 60
60 61
61 62
62 63
63 64
64 65
65 66
65 185
66 67
67 68
68 69
69 70
70 71
71 72
72 73
73 74
74 75
75 76
76 77
77 78
78 79
78 290
79 235
80 81
81 82
82 83
83 84
84 85
85 152
87 88
88 89
89 90
90 258
91 92
91 254
92 93
93 94
94 95
95 96
96 97
96 340
97 98
98 99
99 100
100 101
101 102
102 103
103 104
104 109
105 106
106 107
107 108
108 158
109 110
110 346
111 112
112 113
113 114
114 115
115 116
116 117
117 118
118 119
119 120
120 121
121 122
122 123
123 124
124 125
125 126
126 127
127 128
128 129
129 130
130 131
131 261
132 133
133 134
134 135
135 136
136 137
137 138
137 139
138 139
140 141
141 142
142 143
143 144
144 145
145 146
146 147
147 148
148 149
149 150
150 151
151 152
152 153
153 154
154 155
155 156
155 300
156 157
157 158
158 159
159 160
160 161
161 162
162 163
163 164
164 165
165 166
166 167
167 168
168 169
169 170
169 330
170 171
171 172
172 173
173 328
174 175
175 176
176 177
177 178
178 179
179 180
180 181
181 371
182 183
183 184
184 185
184 318
186 187
187 188
188 189
189 190
190 191
192 193
193 194
194 195
195 196
195 233
196 197
197 198
198 199
199 200
200 201
201 284
201 268
202 203
203 204
204 205
204 273
205 261
206 308
207 259
208 209
209 376
210 211
211 212
212 213
213 214
214 215
215 216
215 375
216 217
217 218
218 219
219 220
220 221
221 222
222 358
223 224
223 255
224 225
225 226
226 227
227 228
228 229
229 230
230 231
231 232
232 253
233 257
234 309
235 236
236 237
237 238
238 239
238 319
239 240
240 241
241 242
242 243
243 244
244 245
246 247
247 248
248 249
249 250
250 251
251 252
252 253
253 254
256 257
258 259
259 260
260 261
261 262
262 263
263 264
265 266
266 267
267 268
269 287
270 271
271 272
272 273
274 275
275 276
276 277
277 278
278 279
279 280
280 281
281 282
282 283
283 284
284 285
285 286
286 287
287 288
288 289
289 290
291 292
292 293
293 294
294 312
296 297
297 298
298 299
299 300
301 302
302 303
303 304
304 305
305 306
306 307
307 308
308 309
309 310
310 311
311 312
312 313
313 314
314 315
315 316
316 317
320 321
321 322
322 323
323 324
324 325
325 330
326 327
327 328
328 329
329 330
331 332
332 333
333 334
334 335
335 336
336 337
337 338
338 339
339 340
341 342
342 343
343 344
344 345
345 346
346 347
347 348
348 349
349 350
350 351
351 352
352 353
353 354
354 355
355 356
356 357
357 358
358 359
359 360
360 361
361 362
362 363
363 364
364 365
365 366
366 367
367 368
368 369
369 370
370 371
371 372
372 373
373 374
374 375
376 377
377 378
378 379
